<instance format="XCSP3" type="COP">
  <variables>
    <array id="X" size="[3]"> 1..3 </array>
  </variables>
  <objectives>
    <maximize type ="sum">
      <list> X[] </list>
    </maximize>
  </objectives>
</instance>
